(set-info :smt-lib-version 2.6)
(set-logic QF_BV)
(set-info :source |
 Patrice Godefroid, SAGE (systematic dynamic test generation)
 For more information: http://research.microsoft.com/en-us/um/people/pg/public_psfiles/ndss2008.pdf
|)
(set-info :category "industrial")
(set-info :status sat)
(declare-fun T2_1463 () (_ BitVec 16))
(declare-fun T4_1455 () (_ BitVec 32))
(declare-fun T4_1450 () (_ BitVec 32))
(declare-fun T4_2301 () (_ BitVec 32))
(declare-fun T2_2309 () (_ BitVec 16))
(declare-fun T4_2296 () (_ BitVec 32))
(declare-fun T1_2300 () (_ BitVec 8))
(declare-fun T2_1908 () (_ BitVec 16))
(declare-fun T1_1899 () (_ BitVec 8))
(declare-fun T1_1454 () (_ BitVec 8))
(declare-fun T2_1062 () (_ BitVec 16))
(declare-fun T1_1053 () (_ BitVec 8))
(declare-fun T1_2647 () (_ BitVec 8))
(declare-fun T2_2649 () (_ BitVec 16))
(declare-fun T1_2651 () (_ BitVec 8))
(declare-fun T4_1900 () (_ BitVec 32))
(declare-fun T4_1054 () (_ BitVec 32))
(declare-fun T1_2664 () (_ BitVec 8))
(declare-fun T1_2688 () (_ BitVec 8))
(declare-fun T1_2707 () (_ BitVec 8))
(declare-fun T2_2716 () (_ BitVec 16))
(declare-fun T4_2708 () (_ BitVec 32))
(declare-fun T1_2716 () (_ BitVec 8))
(declare-fun T1_2717 () (_ BitVec 8))
(declare-fun T1_2708 () (_ BitVec 8))
(declare-fun T1_2709 () (_ BitVec 8))
(declare-fun T1_2710 () (_ BitVec 8))
(declare-fun T1_2711 () (_ BitVec 8))
(declare-fun T1_2649 () (_ BitVec 8))
(declare-fun T1_2650 () (_ BitVec 8))
(declare-fun T1_2309 () (_ BitVec 8))
(declare-fun T1_2310 () (_ BitVec 8))
(declare-fun T1_2301 () (_ BitVec 8))
(declare-fun T1_2302 () (_ BitVec 8))
(declare-fun T1_2303 () (_ BitVec 8))
(declare-fun T1_2304 () (_ BitVec 8))
(declare-fun T1_2296 () (_ BitVec 8))
(declare-fun T1_2297 () (_ BitVec 8))
(declare-fun T1_2298 () (_ BitVec 8))
(declare-fun T1_2299 () (_ BitVec 8))
(declare-fun T1_1908 () (_ BitVec 8))
(declare-fun T1_1909 () (_ BitVec 8))
(declare-fun T1_1900 () (_ BitVec 8))
(declare-fun T1_1901 () (_ BitVec 8))
(declare-fun T1_1902 () (_ BitVec 8))
(declare-fun T1_1903 () (_ BitVec 8))
(declare-fun T1_1463 () (_ BitVec 8))
(declare-fun T1_1464 () (_ BitVec 8))
(declare-fun T1_1455 () (_ BitVec 8))
(declare-fun T1_1456 () (_ BitVec 8))
(declare-fun T1_1457 () (_ BitVec 8))
(declare-fun T1_1458 () (_ BitVec 8))
(declare-fun T1_1450 () (_ BitVec 8))
(declare-fun T1_1451 () (_ BitVec 8))
(declare-fun T1_1452 () (_ BitVec 8))
(declare-fun T1_1453 () (_ BitVec 8))
(declare-fun T1_1062 () (_ BitVec 8))
(declare-fun T1_1063 () (_ BitVec 8))
(declare-fun T1_1054 () (_ BitVec 8))
(declare-fun T1_1055 () (_ BitVec 8))
(declare-fun T1_1056 () (_ BitVec 8))
(declare-fun T1_1057 () (_ BitVec 8))
(assert (let ((?v_37 ((_ zero_extend 16) T2_1463))) (let ((?v_42 (bvadd ?v_37 T4_1450)) (?v_0 ((_ zero_extend 16) T2_2309)) (?v_3 ((_ zero_extend 24) T1_2300)) (?v_2 ((_ zero_extend 16) T2_1908)) (?v_1 ((_ zero_extend 24) T1_1899))) (let ((?v_8 (bvadd ?v_1 (_ bv1 32)))) (let ((?v_27 (bvadd (bvadd ?v_8 (_ bv1583388 32)) ?v_2))) (let ((?v_30 (bvadd ?v_27 (_ bv6 32)))) (let ((?v_41 (bvadd (bvadd ?v_30 (bvadd ?v_3 (_ bv1 32))) (_ bv2 32))) (?v_28 ((_ zero_extend 24) T1_1454)) (?v_25 ((_ zero_extend 16) T2_1062)) (?v_13 ((_ zero_extend 24) T1_1053))) (let ((?v_24 (bvadd ?v_13 (_ bv1 32)))) (let ((?v_29 (bvadd (bvadd ?v_24 (_ bv1584444 32)) ?v_25))) (let ((?v_36 (bvadd ?v_29 (_ bv6 32)))) (let ((?v_40 (bvadd (bvadd ?v_36 (bvadd ?v_28 (_ bv1 32))) (_ bv2 32))) (?v_39 (bvadd ?v_41 ?v_0)) (?v_32 (bvsub ?v_3 (_ bv8 32))) (?v_18 (bvsub ?v_1 (_ bv8 32)))) (let ((?v_26 (bvadd (bvadd ?v_18 (_ bv1583397 32)) ?v_2))) (let ((?v_38 (bvadd (bvadd (bvadd (bvadd ?v_26 (_ bv15 32)) ?v_32) (_ bv2 32)) ?v_0)) (?v_35 (bvsub ?v_28 (_ bv8 32))) (?v_23 (bvsub ?v_13 (_ bv8 32)))) (let ((?v_34 (bvadd (bvadd ?v_23 (_ bv1584453 32)) ?v_25)) (?v_33 (bvadd ?v_39 (_ bv6 32))) (?v_4 ((_ zero_extend 24) T1_2647))) (let ((?v_31 (bvadd ?v_33 (bvadd ?v_4 (_ bv1 32))))) (let ((?v_10 (bvadd ?v_31 (_ bv2 32))) (?v_5 ((_ zero_extend 16) T2_2649)) (?v_11 ((_ zero_extend 24) T1_2651))) (let ((?v_22 (bvadd ?v_10 ?v_11)) (?v_21 (bvadd ?v_10 ?v_5)) (?v_20 (bvadd ?v_5 (bvsub (_ bv4294967295 32) ?v_11))) (?v_12 ((_ zero_extend 24) T1_2664)) (?v_19 (bvadd (bvadd (bvadd (bvadd ?v_38 (_ bv7 32)) ?v_4) (_ bv2 32)) ?v_5))) (let ((?v_17 (bvadd ?v_21 (_ bv6 32))) (?v_16 (bvadd ?v_20 (bvsub (_ bv4294967295 32) ?v_12))) (?v_15 ((_ zero_extend 24) T1_2688)) (?v_6 ((_ zero_extend 24) T1_2707))) (let ((?v_14 (bvsub ?v_6 (_ bv8 32))) (?v_9 (bvadd (bvadd ?v_17 (bvadd ?v_6 (_ bv1 32))) (_ bv2 32))) (?v_7 ((_ zero_extend 16) T2_2716))) (and true (= T4_1054 (bvor (bvshl (bvor (bvshl (bvor (bvshl ((_ zero_extend 24) T1_1057) (_ bv8 32)) ((_ zero_extend 24) T1_1056)) (_ bv8 32)) ((_ zero_extend 24) T1_1055)) (_ bv8 32)) ((_ zero_extend 24) T1_1054))) (= T2_1062 (bvor (bvshl ((_ zero_extend 8) T1_1063) (_ bv8 16)) ((_ zero_extend 8) T1_1062))) (= T4_1450 (bvor (bvshl (bvor (bvshl (bvor (bvshl ((_ zero_extend 24) T1_1453) (_ bv8 32)) ((_ zero_extend 24) T1_1452)) (_ bv8 32)) ((_ zero_extend 24) T1_1451)) (_ bv8 32)) ((_ zero_extend 24) T1_1450))) (= T4_1455 (bvor (bvshl (bvor (bvshl (bvor (bvshl ((_ zero_extend 24) T1_1458) (_ bv8 32)) ((_ zero_extend 24) T1_1457)) (_ bv8 32)) ((_ zero_extend 24) T1_1456)) (_ bv8 32)) ((_ zero_extend 24) T1_1455))) (= T2_1463 (bvor (bvshl ((_ zero_extend 8) T1_1464) (_ bv8 16)) ((_ zero_extend 8) T1_1463))) (= T4_1900 (bvor (bvshl (bvor (bvshl (bvor (bvshl ((_ zero_extend 24) T1_1903) (_ bv8 32)) ((_ zero_extend 24) T1_1902)) (_ bv8 32)) ((_ zero_extend 24) T1_1901)) (_ bv8 32)) ((_ zero_extend 24) T1_1900))) (= T2_1908 (bvor (bvshl ((_ zero_extend 8) T1_1909) (_ bv8 16)) ((_ zero_extend 8) T1_1908))) (= T4_2296 (bvor (bvshl (bvor (bvshl (bvor (bvshl ((_ zero_extend 24) T1_2299) (_ bv8 32)) ((_ zero_extend 24) T1_2298)) (_ bv8 32)) ((_ zero_extend 24) T1_2297)) (_ bv8 32)) ((_ zero_extend 24) T1_2296))) (= T4_2301 (bvor (bvshl (bvor (bvshl (bvor (bvshl ((_ zero_extend 24) T1_2304) (_ bv8 32)) ((_ zero_extend 24) T1_2303)) (_ bv8 32)) ((_ zero_extend 24) T1_2302)) (_ bv8 32)) ((_ zero_extend 24) T1_2301))) (= T2_2309 (bvor (bvshl ((_ zero_extend 8) T1_2310) (_ bv8 16)) ((_ zero_extend 8) T1_2309))) (= T2_2649 (bvor (bvshl ((_ zero_extend 8) T1_2650) (_ bv8 16)) ((_ zero_extend 8) T1_2649))) (= T4_2708 (bvor (bvshl (bvor (bvshl (bvor (bvshl ((_ zero_extend 24) T1_2711) (_ bv8 32)) ((_ zero_extend 24) T1_2710)) (_ bv8 32)) ((_ zero_extend 24) T1_2709)) (_ bv8 32)) ((_ zero_extend 24) T1_2708))) (= T2_2716 (bvor (bvshl ((_ zero_extend 8) T1_2717) (_ bv8 16)) ((_ zero_extend 8) T1_2716))) (not (= (bvadd ?v_0 T4_2296) T4_1455)) (bvule (bvsub (bvadd (bvadd (bvadd (bvadd ?v_19 (_ bv15 32)) ?v_14) (_ bv2 32)) ?v_7) (_ bv1583368 32)) (_ bv846 32)) (bvule (bvsub (bvadd ?v_9 ?v_7) (_ bv1583368 32)) (_ bv846 32)) (not (= T4_2708 ?v_7)) (bvule (bvadd (bvadd ?v_24 (_ bv1584442 32)) (_ bv2 32)) (_ bv1585270 32)) (bvule (bvadd (bvadd ?v_8 (_ bv1583386 32)) (_ bv2 32)) (_ bv1584214 32)) (= (bvadd ?v_16 (bvsub (_ bv4294967295 32) ?v_15)) (_ bv0 32)) (bvule (_ bv8 32) ?v_6) (not (= ?v_6 (_ bv1 32))) (bvule ?v_9 (_ bv1584214 32)) (bvule (bvadd (bvadd (bvadd ?v_22 (_ bv1 32)) ?v_12) (_ bv2 32)) (_ bv1584214 32)) (bvule (_ bv8 32) ?v_13) (not (= ?v_13 (_ bv1 32))) (bvule ?v_14 (_ bv0 32)) (bvule (_ bv8 32) ?v_1) (not (= ?v_1 (_ bv1 32))) (bvule (bvadd ?v_15 (_ bv1 32)) ?v_16) (not (= ?v_16 (_ bv0 32))) (bvule (bvadd ?v_17 (_ bv1 32)) (_ bv1584214 32)) (bvule ?v_23 (_ bv0 32)) (bvule ?v_18 (_ bv0 32)) (bvule (bvsub ?v_19 (_ bv1583368 32)) (_ bv846 32)) (bvule (bvadd ?v_12 (_ bv1 32)) ?v_20) (not (= ?v_20 (_ bv0 32))) (bvule (bvsub ?v_21 (_ bv1583368 32)) (_ bv846 32)) (bvule (bvadd ?v_22 (_ bv2 32)) (_ bv1584214 32)) (bvule (bvsub ?v_34 (_ bv1584424 32)) (_ bv846 32)) (bvule (bvsub ?v_29 (_ bv1584424 32)) (_ bv846 32)) (= T4_1054 ?v_25) (bvule (bvsub ?v_26 (_ bv1583368 32)) (_ bv846 32)) (bvule (bvsub ?v_27 (_ bv1583368 32)) (_ bv846 32)) (= T4_1900 ?v_2) (bvule (bvadd ?v_11 (_ bv1 32)) ?v_5) (not (= ?v_5 (_ bv0 32))) (bvule (_ bv8 32) ?v_28) (not (= ?v_28 (_ bv1 32))) (bvule (bvadd ?v_36 (_ bv1 32)) (_ bv1585270 32)) (bvule (_ bv8 32) ?v_3) (not (= ?v_3 (_ bv1 32))) (bvule (bvadd ?v_30 (_ bv1 32)) (_ bv1584214 32)) (bvule (bvadd ?v_31 (_ bv3 32)) (_ bv1584214 32)) (bvule ?v_10 (_ bv1584214 32)) (bvule ?v_35 (_ bv0 32)) (bvule ?v_32 (_ bv0 32)) (bvult ?v_4 (_ bv8 32)) (not (= ?v_4 (_ bv0 32))) (= ?v_4 (_ bv1 32)) (bvule (bvadd ?v_33 (_ bv1 32)) (_ bv1584214 32)) (bvule (bvsub (bvadd (bvadd (bvadd (bvadd ?v_34 (_ bv15 32)) ?v_35) (_ bv2 32)) ?v_37) (_ bv1584424 32)) (_ bv846 32)) (bvule (bvsub (bvadd ?v_40 ?v_37) (_ bv1584424 32)) (_ bv846 32)) (bvule (bvsub ?v_38 (_ bv1583368 32)) (_ bv846 32)) (bvule (bvsub ?v_39 (_ bv1583368 32)) (_ bv846 32)) (bvule ?v_40 (_ bv1585270 32)) (= T4_1450 (_ bv0 32)) (bvule ?v_41 (_ bv1584214 32)) (not (= T4_2301 (_ bv0 32))) (= T4_2296 ?v_42) (bvult T4_1450 T4_2296) (not (= T4_2296 T4_1450)) (not (= T4_2301 ?v_0)) (= T4_2301 T4_1455) (not (= ?v_42 T4_1455)) (not (= T4_1455 (_ bv0 32))) (not (= T4_1455 ?v_37))))))))))))))))))))))
(check-sat)
(exit)
